NAME : TESTE1
COMMENT : 00.00
TYPE : CVRP
DIMENSION : 5
EDGE_WEIGHT_TYPE : EUC_2D
CAPACITY : 10
NODE_COORD_SECTION
1 30.00000 40.00000
2 37.00000 52.00000
3 49.00000 49.00000
4 52.00000 64.00000
5 20.00000 26.00000
DEMAND_SECTION
1 0
2 7
3 30
4 16
5 9
DEPOT_SECTION
1
-1
EOF